NAME /Users/henri/Research/solvers/instances/idol-instances/robust/collection/spp_dkp_Lefebvre_et_al_2026/shortest_path_5_4/uncertainty_sets/discrete_knapsack
ROWS
 N  OBJ
 L  primal_lower
COLUMNS
    MARKER    'MARKER'                 'INTORG'
    y[0,1]     OBJ        0
    y[0,1]     primal_lower -4.7
    y[0,2]     OBJ        0
    y[0,2]     primal_lower -3.81
    y[0,3]     OBJ        0
    y[0,3]     primal_lower -1.49
    y[0,4]     OBJ        0
    y[0,4]     primal_lower -4.55
    y[1,0]     OBJ        0
    y[1,0]     primal_lower -1.88
    y[1,4]     OBJ        0
    y[1,4]     primal_lower -5.62
    y[2,0]     OBJ        0
    y[2,0]     primal_lower -0.26
    y[2,3]     OBJ        0
    y[2,3]     primal_lower -2.65
    y[2,4]     OBJ        0
    y[2,4]     primal_lower -5.48
    y[3,0]     OBJ        0
    y[3,0]     primal_lower -2.73
    y[3,2]     OBJ        0
    y[3,2]     primal_lower -3.05
    y[3,4]     OBJ        0
    y[3,4]     primal_lower -0.51
    y[4,0]     OBJ        0
    y[4,0]     primal_lower -2.56
    y[4,1]     OBJ        0
    y[4,1]     primal_lower -4.47
    y[4,2]     OBJ        0
    y[4,2]     primal_lower -5.2
    y[4,3]     OBJ        0
    y[4,3]     primal_lower -1.94
    u[0,1]     OBJ        0
    u[0,1]     primal_lower 14
    u[0,2]     OBJ        0
    u[0,2]     primal_lower 72
    u[0,3]     OBJ        0
    u[0,3]     primal_lower 54
    u[0,4]     OBJ        0
    u[0,4]     primal_lower 85
    u[1,0]     OBJ        0
    u[1,0]     primal_lower 84
    u[1,4]     OBJ        0
    u[1,4]     primal_lower 58
    u[2,0]     OBJ        0
    u[2,0]     primal_lower 77
    u[2,3]     OBJ        0
    u[2,3]     primal_lower 22
    u[2,4]     OBJ        0
    u[2,4]     primal_lower 82
    u[3,0]     OBJ        0
    u[3,0]     primal_lower 96
    u[3,2]     OBJ        0
    u[3,2]     primal_lower 48
    u[3,4]     OBJ        0
    u[3,4]     primal_lower 75
    u[4,0]     OBJ        0
    u[4,0]     primal_lower 83
    u[4,1]     OBJ        0
    u[4,1]     primal_lower 12
    u[4,2]     OBJ        0
    u[4,2]     primal_lower 6
    u[4,3]     OBJ        0
    u[4,3]     primal_lower 90
    MARKER    'MARKER'                 'INTEND'
RHS
    RHS       primal_lower 96
BOUNDS
 LI BND       y[0,1]     0
 UI BND       y[0,1]     1
 LI BND       y[0,2]     0
 UI BND       y[0,2]     1
 LI BND       y[0,3]     0
 UI BND       y[0,3]     1
 LI BND       y[0,4]     0
 UI BND       y[0,4]     1
 LI BND       y[1,0]     0
 UI BND       y[1,0]     1
 LI BND       y[1,4]     0
 UI BND       y[1,4]     1
 LI BND       y[2,0]     0
 UI BND       y[2,0]     1
 LI BND       y[2,3]     0
 UI BND       y[2,3]     1
 LI BND       y[2,4]     0
 UI BND       y[2,4]     1
 LI BND       y[3,0]     0
 UI BND       y[3,0]     1
 LI BND       y[3,2]     0
 UI BND       y[3,2]     1
 LI BND       y[3,4]     0
 UI BND       y[3,4]     1
 LI BND       y[4,0]     0
 UI BND       y[4,0]     1
 LI BND       y[4,1]     0
 UI BND       y[4,1]     1
 LI BND       y[4,2]     0
 UI BND       y[4,2]     1
 LI BND       y[4,3]     0
 UI BND       y[4,3]     1
 LI BND       u[0,1]     0
 UI BND       u[0,1]     1
 LI BND       u[0,2]     0
 UI BND       u[0,2]     1
 LI BND       u[0,3]     0
 UI BND       u[0,3]     1
 LI BND       u[0,4]     0
 UI BND       u[0,4]     1
 LI BND       u[1,0]     0
 UI BND       u[1,0]     1
 LI BND       u[1,4]     0
 UI BND       u[1,4]     1
 LI BND       u[2,0]     0
 UI BND       u[2,0]     1
 LI BND       u[2,3]     0
 UI BND       u[2,3]     1
 LI BND       u[2,4]     0
 UI BND       u[2,4]     1
 LI BND       u[3,0]     0
 UI BND       u[3,0]     1
 LI BND       u[3,2]     0
 UI BND       u[3,2]     1
 LI BND       u[3,4]     0
 UI BND       u[3,4]     1
 LI BND       u[4,0]     0
 UI BND       u[4,0]     1
 LI BND       u[4,1]     0
 UI BND       u[4,1]     1
 LI BND       u[4,2]     0
 UI BND       u[4,2]     1
 LI BND       u[4,3]     0
 UI BND       u[4,3]     1
ENDATA
